(set-logic QF_S)
(declare-fun var0 () String)
(assert (RegexIn var0 (RegexConcat (RegexPlus (RegexUnion (Str2Reg "000") (Str2Reg "1"))) (RegexConcat (RegexStar (RegexPlus (Str2Reg "22"))) (RegexConcat (RegexStar (RegexPlus (Str2Reg "33"))) (RegexConcat (RegexStar (RegexUnion (Str2Reg "44") (Str2Reg "555"))) (RegexConcat (RegexPlus (RegexUnion (Str2Reg "666") (Str2Reg "77"))) (RegexConcat (RegexUnion (RegexPlus (Str2Reg "888")) (RegexPlus (Str2Reg "999"))) (RegexConcat (RegexStar (RegexStar (Str2Reg "aa"))) (RegexConcat (RegexUnion (RegexUnion (Str2Reg "b") (Str2Reg "c")) (RegexUnion (Str2Reg "ddd") (Str2Reg "e"))) (RegexConcat (RegexStar (RegexUnion (Str2Reg "f") (Str2Reg "gg"))) (RegexPlus (RegexPlus (Str2Reg "hhh"))))))))))))))
(assert (<= 201 (Length var0)))
(check-sat)